c File: data_files/evolved_graphs/g3654.col
c
c Auto generated graph
c
p edge 100 1158
e 1 4
e 1 9
e 1 10
e 1 11
e 1 15
e 1 16
e 1 22
e 1 23
e 1 24
e 1 30
e 1 33
e 1 38
e 1 39
e 1 72
e 1 78
e 1 79
e 1 81
e 1 89
e 1 93
e 1 96
e 2 9
e 2 11
e 2 12
e 2 15
e 2 22
e 2 23
e 2 29
e 2 41
e 2 52
e 2 53
e 2 59
e 2 60
e 2 61
e 2 71
e 2 79
e 2 85
e 2 96
e 3 5
e 3 9
e 3 10
e 3 20
e 3 23
e 3 24
e 3 30
e 3 32
e 3 35
e 3 38
e 3 42
e 3 50
e 3 59
e 3 61
e 3 65
e 3 68
e 3 78
e 3 80
e 3 87
e 3 97
e 4 5
e 4 6
e 4 11
e 4 13
e 4 17
e 4 18
e 4 21
e 4 22
e 4 25
e 4 29
e 4 30
e 4 35
e 4 41
e 4 42
e 4 59
e 4 81
e 4 82
e 4 88
e 4 90
e 4 96
e 5 13
e 5 26
e 5 27
e 5 28
e 5 33
e 5 40
e 5 62
e 5 66
e 5 80
e 5 82
e 5 87
e 5 90
e 5 93
e 6 15
e 6 16
e 6 19
e 6 25
e 6 26
e 6 27
e 6 44
e 6 50
e 6 60
e 6 63
e 6 67
e 6 71
e 6 72
e 6 83
e 6 85
e 6 86
e 6 89
e 6 93
e 6 95
e 7 11
e 7 12
e 7 14
e 7 15
e 7 21
e 7 22
e 7 26
e 7 27
e 7 28
e 7 32
e 7 35
e 7 53
e 7 56
e 7 66
e 7 70
e 7 85
e 7 86
e 7 87
e 7 88
e 7 89
e 7 95
e 7 97
e 7 100
e 8 9
e 8 11
e 8 12
e 8 16
e 8 22
e 8 23
e 8 24
e 8 27
e 8 29
e 8 30
e 8 31
e 8 36
e 8 37
e 8 62
e 8 63
e 8 73
e 8 80
e 8 84
e 8 87
e 8 89
e 8 92
e 8 95
e 9 10
e 9 25
e 9 26
e 9 28
e 9 31
e 9 33
e 9 35
e 9 42
e 9 45
e 9 60
e 9 66
e 9 71
e 9 82
e 9 83
e 9 86
e 9 89
e 9 91
e 9 94
e 9 96
e 10 11
e 10 13
e 10 23
e 10 24
e 10 28
e 10 30
e 10 34
e 10 40
e 10 44
e 10 45
e 10 53
e 10 64
e 10 65
e 10 80
e 10 82
e 10 84
e 10 86
e 10 100
e 11 13
e 11 15
e 11 18
e 11 20
e 11 24
e 11 27
e 11 28
e 11 35
e 11 59
e 11 75
e 11 82
e 11 83
e 11 89
e 11 90
e 11 91
e 11 93
e 12 15
e 12 19
e 12 20
e 12 21
e 12 43
e 12 45
e 12 59
e 12 67
e 12 87
e 12 89
e 12 91
e 12 92
e 13 15
e 13 18
e 13 29
e 13 34
e 13 37
e 13 49
e 13 52
e 13 54
e 13 60
e 13 69
e 13 77
e 13 79
e 13 81
e 13 83
e 13 85
e 13 89
e 13 93
e 13 95
e 14 17
e 14 19
e 14 23
e 14 24
e 14 28
e 14 46
e 14 53
e 14 61
e 14 63
e 14 84
e 14 85
e 14 87
e 14 91
e 14 93
e 14 95
e 15 17
e 15 20
e 15 24
e 15 25
e 15 28
e 15 32
e 15 34
e 15 36
e 15 54
e 15 59
e 15 65
e 15 72
e 15 76
e 15 77
e 15 78
e 15 80
e 15 86
e 15 88
e 15 90
e 15 93
e 15 97
e 16 17
e 16 22
e 16 26
e 16 31
e 16 34
e 16 35
e 16 51
e 16 53
e 16 57
e 16 68
e 16 80
e 17 18
e 17 21
e 17 24
e 17 29
e 17 30
e 17 38
e 17 39
e 17 41
e 17 55
e 17 76
e 17 84
e 17 95
e 18 24
e 18 25
e 18 30
e 18 34
e 18 35
e 18 36
e 18 39
e 18 48
e 18 49
e 18 50
e 18 56
e 18 74
e 18 78
e 18 80
e 18 84
e 18 86
e 18 87
e 18 91
e 18 92
e 19 20
e 19 21
e 19 22
e 19 23
e 19 27
e 19 31
e 19 33
e 19 35
e 19 54
e 19 63
e 19 74
e 19 75
e 19 80
e 19 83
e 19 87
e 19 90
e 19 91
e 19 94
e 19 98
e 20 25
e 20 27
e 20 34
e 20 35
e 20 36
e 20 79
e 20 81
e 20 82
e 20 84
e 20 88
e 20 90
e 20 92
e 21 25
e 21 26
e 21 29
e 21 31
e 21 32
e 21 34
e 21 36
e 21 39
e 21 42
e 21 45
e 21 46
e 21 47
e 21 59
e 21 63
e 21 78
e 21 79
e 21 80
e 21 83
e 21 88
e 21 92
e 21 93
e 21 94
e 22 23
e 22 32
e 22 47
e 22 53
e 22 71
e 22 72
e 22 75
e 22 77
e 22 81
e 22 82
e 22 86
e 22 88
e 22 89
e 22 90
e 22 91
e 22 92
e 22 95
e 22 96
e 22 97
e 23 26
e 23 27
e 23 34
e 23 62
e 23 76
e 23 79
e 23 80
e 23 86
e 23 91
e 24 25
e 24 28
e 24 44
e 24 45
e 24 49
e 24 54
e 24 65
e 24 80
e 24 84
e 24 85
e 24 86
e 24 88
e 24 92
e 24 96
e 25 26
e 25 38
e 25 39
e 25 42
e 25 49
e 25 56
e 25 59
e 25 79
e 25 81
e 25 84
e 25 87
e 25 89
e 26 27
e 26 28
e 26 29
e 26 38
e 26 41
e 26 46
e 26 55
e 26 66
e 26 67
e 26 69
e 26 75
e 26 77
e 26 82
e 26 92
e 26 94
e 26 96
e 27 29
e 27 31
e 27 60
e 27 80
e 27 83
e 27 86
e 27 88
e 27 89
e 27 94
e 27 95
e 28 31
e 28 35
e 28 60
e 28 62
e 28 68
e 28 69
e 28 84
e 28 92
e 29 32
e 29 34
e 29 35
e 29 36
e 29 57
e 29 68
e 29 69
e 29 78
e 29 80
e 29 89
e 29 91
e 29 94
e 29 99
e 30 31
e 30 32
e 30 47
e 30 51
e 30 56
e 30 66
e 30 89
e 31 34
e 31 52
e 31 80
e 31 86
e 31 93
e 31 94
e 32 37
e 32 50
e 32 58
e 32 60
e 32 78
e 32 81
e 32 83
e 32 84
e 32 88
e 33 34
e 33 40
e 33 51
e 33 52
e 33 53
e 33 56
e 33 57
e 33 60
e 33 81
e 33 84
e 33 91
e 34 47
e 34 48
e 34 52
e 34 55
e 34 68
e 34 78
e 34 80
e 34 93
e 35 39
e 35 47
e 35 50
e 35 56
e 35 57
e 35 62
e 35 83
e 36 38
e 36 49
e 36 51
e 36 52
e 36 53
e 36 60
e 36 61
e 36 64
e 36 65
e 36 66
e 36 67
e 36 71
e 36 72
e 36 76
e 36 84
e 36 87
e 36 92
e 37 43
e 37 44
e 37 46
e 37 49
e 37 51
e 37 54
e 37 56
e 37 59
e 37 62
e 37 63
e 37 65
e 37 69
e 37 71
e 37 73
e 37 76
e 37 81
e 37 83
e 37 91
e 37 92
e 37 93
e 38 40
e 38 44
e 38 48
e 38 51
e 38 52
e 38 60
e 38 61
e 38 64
e 38 67
e 38 68
e 38 71
e 38 76
e 38 77
e 38 82
e 38 89
e 38 94
e 38 95
e 38 100
e 39 40
e 39 49
e 39 50
e 39 51
e 39 52
e 39 53
e 39 55
e 39 61
e 39 62
e 39 63
e 39 66
e 39 71
e 39 72
e 39 75
e 39 83
e 39 92
e 39 93
e 39 95
e 39 96
e 40 48
e 40 50
e 40 51
e 40 53
e 40 55
e 40 58
e 40 61
e 40 64
e 40 67
e 40 77
e 40 83
e 40 88
e 40 89
e 40 90
e 40 95
e 40 96
e 40 100
e 41 42
e 41 43
e 41 47
e 41 52
e 41 54
e 41 59
e 41 68
e 41 70
e 41 71
e 41 72
e 41 73
e 41 75
e 41 79
e 41 81
e 41 84
e 41 88
e 41 91
e 41 92
e 41 93
e 41 100
e 42 44
e 42 53
e 42 60
e 42 65
e 42 67
e 42 72
e 42 73
e 42 75
e 42 77
e 42 81
e 42 83
e 42 88
e 42 89
e 42 93
e 42 94
e 43 51
e 43 53
e 43 56
e 43 58
e 43 62
e 43 63
e 43 64
e 43 70
e 43 75
e 43 78
e 43 79
e 43 81
e 43 93
e 43 94
e 44 46
e 44 47
e 44 50
e 44 51
e 44 53
e 44 54
e 44 56
e 44 57
e 44 59
e 44 63
e 44 64
e 44 67
e 44 71
e 44 74
e 44 75
e 44 78
e 44 81
e 44 86
e 44 87
e 44 96
e 44 97
e 44 98
e 45 57
e 45 59
e 45 66
e 45 72
e 45 73
e 45 75
e 45 76
e 45 77
e 45 83
e 45 84
e 45 85
e 45 88
e 45 89
e 45 90
e 45 93
e 45 95
e 46 51
e 46 53
e 46 62
e 46 75
e 46 76
e 46 78
e 46 83
e 46 85
e 46 87
e 46 91
e 46 93
e 47 48
e 47 51
e 47 52
e 47 54
e 47 55
e 47 56
e 47 57
e 47 60
e 47 61
e 47 68
e 47 70
e 47 71
e 47 72
e 47 78
e 47 79
e 47 81
e 47 85
e 47 89
e 47 90
e 47 92
e 47 94
e 48 50
e 48 56
e 48 62
e 48 65
e 48 73
e 48 78
e 48 82
e 48 83
e 48 85
e 48 87
e 48 88
e 48 91
e 48 92
e 48 95
e 49 52
e 49 53
e 49 55
e 49 58
e 49 60
e 49 61
e 49 64
e 49 66
e 49 68
e 49 69
e 49 73
e 49 74
e 49 79
e 49 80
e 49 85
e 49 90
e 49 91
e 49 93
e 49 100
e 50 52
e 50 54
e 50 58
e 50 62
e 50 64
e 50 65
e 50 66
e 50 67
e 50 69
e 50 70
e 50 73
e 50 74
e 50 75
e 50 78
e 50 82
e 50 84
e 50 87
e 50 89
e 50 97
e 50 98
e 50 100
e 51 52
e 51 53
e 51 55
e 51 63
e 51 64
e 51 76
e 51 78
e 51 79
e 51 82
e 51 83
e 51 87
e 51 88
e 51 89
e 51 91
e 51 98
e 52 53
e 52 59
e 52 64
e 52 65
e 52 71
e 52 72
e 52 73
e 52 81
e 52 83
e 52 84
e 52 85
e 52 88
e 52 92
e 53 55
e 53 63
e 53 69
e 53 75
e 53 77
e 53 78
e 53 79
e 53 80
e 53 84
e 53 86
e 53 87
e 53 92
e 53 95
e 54 63
e 54 68
e 54 71
e 54 72
e 54 74
e 54 76
e 54 77
e 54 78
e 54 79
e 54 83
e 54 86
e 54 89
e 54 92
e 54 96
e 54 100
e 55 57
e 55 64
e 55 66
e 55 68
e 55 77
e 55 80
e 55 81
e 55 83
e 55 87
e 55 90
e 55 96
e 55 99
e 56 59
e 56 61
e 56 64
e 56 66
e 56 67
e 56 71
e 56 75
e 56 78
e 56 89
e 56 91
e 56 92
e 56 94
e 56 95
e 56 97
e 57 58
e 57 61
e 57 64
e 57 70
e 57 80
e 57 81
e 57 82
e 57 85
e 57 93
e 57 95
e 58 68
e 58 71
e 58 74
e 58 78
e 58 79
e 58 81
e 58 84
e 58 89
e 58 93
e 58 95
e 59 61
e 59 64
e 59 65
e 59 68
e 59 69
e 59 70
e 59 78
e 59 79
e 59 81
e 59 82
e 59 88
e 59 94
e 59 97
e 60 62
e 60 70
e 60 71
e 60 72
e 60 76
e 60 78
e 60 79
e 60 80
e 60 81
e 60 82
e 60 86
e 60 94
e 60 97
e 61 64
e 61 69
e 61 72
e 61 79
e 61 82
e 61 83
e 61 84
e 61 85
e 61 89
e 61 90
e 61 93
e 61 95
e 61 99
e 62 72
e 62 74
e 62 75
e 62 76
e 62 81
e 62 83
e 62 84
e 62 85
e 62 89
e 62 94
e 62 95
e 62 96
e 63 66
e 63 69
e 63 76
e 63 77
e 63 81
e 63 83
e 63 84
e 63 87
e 63 88
e 63 89
e 63 91
e 63 96
e 63 100
e 64 66
e 64 67
e 64 71
e 64 73
e 64 74
e 64 86
e 64 89
e 64 90
e 64 93
e 64 94
e 64 98
e 65 70
e 65 73
e 65 76
e 65 77
e 65 78
e 65 84
e 65 86
e 65 90
e 65 94
e 66 67
e 66 68
e 66 69
e 66 72
e 66 74
e 66 84
e 66 86
e 66 88
e 66 90
e 66 91
e 66 92
e 66 98
e 67 71
e 67 72
e 67 78
e 67 81
e 67 86
e 67 89
e 67 91
e 67 92
e 67 94
e 68 70
e 68 71
e 68 73
e 68 74
e 68 76
e 68 80
e 68 81
e 68 82
e 68 83
e 68 85
e 68 86
e 68 90
e 68 91
e 68 96
e 69 71
e 69 78
e 69 81
e 69 85
e 69 88
e 69 91
e 69 99
e 70 71
e 70 72
e 70 74
e 70 76
e 70 79
e 70 82
e 70 84
e 70 85
e 70 86
e 70 90
e 70 92
e 71 77
e 71 80
e 71 81
e 71 84
e 71 85
e 71 90
e 71 91
e 71 93
e 72 74
e 72 75
e 72 77
e 72 78
e 72 81
e 72 85
e 72 86
e 72 92
e 72 95
e 72 98
e 73 77
e 73 79
e 73 83
e 73 84
e 73 85
e 73 86
e 73 90
e 73 94
e 73 95
e 74 80
e 74 83
e 74 85
e 74 91
e 74 94
e 74 96
e 74 97
e 75 76
e 75 78
e 75 81
e 75 82
e 75 84
e 75 87
e 75 88
e 75 90
e 75 94
e 76 78
e 76 81
e 76 82
e 76 84
e 76 86
e 76 87
e 76 88
e 76 89
e 76 91
e 76 94
e 76 95
e 76 98
e 77 79
e 77 83
e 77 85
e 77 86
e 77 92
e 77 96
e 78 81
e 78 82
e 78 87
e 78 88
e 78 89
e 78 93
e 78 94
e 78 98
e 78 100
e 79 81
e 79 82
e 79 84
e 79 85
e 79 89
e 79 90
e 79 91
e 80 83
e 80 88
e 80 93
e 81 82
e 81 83
e 81 85
e 81 92
e 81 93
e 81 96
e 82 83
e 82 84
e 82 85
e 82 92
e 82 94
e 82 96
e 83 86
e 83 89
e 83 92
e 83 94
e 83 95
e 83 97
e 84 85
e 85 90
e 85 97
e 85 100
e 86 88
e 86 89
e 86 91
e 86 92
e 86 95
e 86 96
e 86 99
e 87 93
e 87 94
e 88 89
e 88 92
e 88 95
e 88 96
e 88 98
e 89 94
e 89 95
e 89 96
e 90 92
e 90 93
e 90 96
e 90 97
e 90 98
e 91 93
e 91 94
e 91 99
e 92 95
e 92 96
e 93 94
e 93 95
e 93 96
e 94 95
e 94 96
e 94 98
e 95 97
e 97 100
e 98 100
